c  s298
c  17 inputs
c  20 outputs
c  44 inverters
c  75 gates ( 31 ANDs + 9 NANDs + 16 ORs + 19 NORs )
cc labels (1 G1) (2 G2) (3 G15) (4 G22) (5 G23) (6 G14) (7 G11) (8 G13) (9 G12) (10 G0) (11 G10) (12 G21) (13 G20) (14 G19) (15 G18) (16 G17) (17 G16) (18 G129) (19 G127) (20 I232) (21 G131) (22 G126) (23 G128) (24 G125) (25 G123) (26 G121) (27 I221) (28 G124) (29 G120) (30 G122) (31 G119) (32 G81) (33 G80) (34 G79) (35 G116) (36 G114) (37 G115) (38 G113) (39 G111) (40 G73) (41 G72) (42 G71) (43 G109) (44 G110) (45 G107) (46 G76) (47 G78) (48 G77) (49 G106) (50 G75) (51 G74) (52 G104) (53 G105) (54 G102) (55 G70) (56 G69) (57 G68) (58 G101) (59 G99) (60 G100) (61 G98) (62 G108) (63 G85) (64 G82) (65 G84) (66 G83) (67 G97) (68 G95) (69 G93) (70 G94) (71 G92) (72 G63) (73 G62) (74 G112) (75 G91) (76 G90) (77 G96) (78 G103) (79 G89) (80 G87) (81 G88) (82 G86) (83 G54) (84 G65) (85 G64) (86 G58) (87 G55) (88 G61) (89 G60) (90 G59) (91 G57) (92 G56) (93 G27) (94 G26) (95 G53) (96 G52) (97 G51) (98 G49) (99 G50) (100 G47) (101 G48) (102 G44) (103 G28) (104 G25) (105 G24) (106 G43) (107 G41) (108 G40) (109 G42) (110 G39) (111 G37) (112 G36) (113 G35) (114 G34) (115 G46) (116 G38) (117 G33) (118 G32) (119 G45) (120 G31) (121 G30) (122 I229) (123 G130) (124 G29) (125 I238) (126 G133) (127 I235) (128 G132) (129 I213) (130 G118) (131 I210) (132 G117) (133 I158) (134 G67) (135 I155) (136 G66)
cc inputs 1 2 3 4 5 6 7 8 9 10 11 12 13 14 15 16 17 
cc outputs 136 134 132 130 128 126 124 121 114 110 102 92 82 71 61 54 45 38 31 24 
p cnf 136 363
135 136 0
-135 -136 0
17 135 0
-17 -135 0
133 134 0
-133 -134 0
16 133 0
-16 -133 0
131 132 0
-131 -132 0
15 131 0
-15 -131 0
129 130 0
-129 -130 0
14 129 0
-14 -129 0
127 128 0
-127 -128 0
13 127 0
-13 -127 0
125 126 0
-125 -126 0
12 125 0
-12 -125 0
124 11 123 0
-124 -11 0
-124 -123 0
122 123 0
-122 -123 0
10 122 0
-10 -122 0
121 120 118 117 123 0
-121 -120 0
-121 -118 0
-121 -117 0
-121 -123 0
120 -11 -119 -8 0
-120 11 0
-120 119 0
-120 8 0
9 119 0
-9 -119 0
118 -11 -7 0
-118 11 0
-118 7 0
117 -116 -115 0
-117 116 0
-117 115 0
11 116 0
-11 -116 0
7 115 0
-7 -115 0
114 113 112 111 123 0
-114 -113 0
-114 -112 0
-114 -111 0
-114 -123 0
113 -11 -7 -9 0
-113 11 0
-113 7 0
-113 9 0
112 -116 -119 0
-112 116 0
-112 119 0
111 -115 -119 0
-111 115 0
-111 119 0
110 109 106 0
-110 -109 0
-110 -106 0
109 -108 -107 0
-109 108 0
-109 107 0
8 108 0
-8 -108 0
-107 -9 -7 -11 0
107 9 0
107 7 0
107 11 0
-106 -105 -104 -103 0
106 105 0
106 104 0
106 103 0
-105 116 115 119 108 0
105 -116 0
105 -115 0
105 -119 0
105 -108 0
-104 116 7 9 0
104 -116 0
104 -7 0
104 -9 0
123 103 0
-123 -103 0
102 101 98 95 0
-102 -101 0
-102 -98 0
-102 -95 0
101 -119 -115 -11 -100 0
-101 119 0
-101 115 0
-101 11 0
-101 100 0
100 99 108 0
-100 -99 0
-100 -108 0
6 99 0
-6 -99 0
98 -99 -97 -96 0
-98 99 0
-98 97 0
-98 96 0
5 97 0
-5 -97 0
-96 -8 -119 -115 -11 0
96 8 0
96 119 0
96 115 0
96 11 0
95 94 93 0
-95 -94 0
-95 -93 0
94 -103 -99 0
-94 103 0
-94 99 0
93 -97 -103 0
-93 97 0
-93 103 0
92 91 86 123 0
-92 -91 0
-92 -86 0
-92 -123 0
91 -90 -7 -89 -88 0
-91 90 0
-91 7 0
-91 89 0
-91 88 0
9 90 0
-9 -90 0
4 89 0
-4 -89 0
88 6 87 0
-88 -6 0
-88 -87 0
8 87 0
-8 -87 0
86 -85 -84 0
-86 85 0
-86 84 0
3 85 0
-3 -85 0
-84 -90 -83 -4 -88 0
84 90 0
84 83 0
84 4 0
84 88 0
7 83 0
-7 -83 0
82 81 79 76 74 0
-82 -81 0
-82 -79 0
-82 -76 0
-82 -74 0
81 -6 -80 0
-81 6 0
-81 80 0
17 80 0
-17 -80 0
79 -78 -77 0
-79 78 0
-79 77 0
8 78 0
-8 -78 0
6 77 0
-6 -77 0
76 -75 -78 0
-76 75 0
-76 78 0
9 75 0
-9 -75 0
74 73 72 0
-74 -73 0
-74 -72 0
73 -90 -7 -89 -88 0
-73 90 0
-73 7 0
-73 89 0
-73 88 0
72 -85 -84 0
-72 85 0
-72 84 0
71 70 68 67 0
-71 -70 0
-71 -68 0
-71 -67 0
70 -69 -8 0
-70 69 0
-70 8 0
16 69 0
-16 -69 0
68 -77 -8 0
-68 77 0
-68 8 0
-67 -66 -65 -63 -62 0
67 66 0
67 65 0
67 63 0
67 62 0
-66 7 9 8 77 0
66 -7 0
66 -9 0
66 -8 0
66 -77 0
-65 64 75 6 0
65 -64 0
65 -75 0
65 -6 0
7 64 0
-7 -64 0
-63 75 77 16 0
63 -75 0
63 -77 0
63 -16 0
74 62 0
-74 -62 0
61 60 58 0
-61 -60 0
-61 -58 0
60 -59 -6 -9 0
-60 59 0
-60 6 0
-60 9 0
15 59 0
-15 -59 0
-58 -57 -56 -55 -62 0
58 57 0
58 56 0
58 55 0
58 62 0
-57 7 9 8 77 0
57 -7 0
57 -9 0
57 -8 0
57 -77 0
-56 78 15 0
56 -78 0
56 -15 0
-55 78 6 0
55 -78 0
55 -6 0
54 53 49 0
-54 -53 0
-54 -49 0
53 -78 -62 -52 0
-53 78 0
-53 62 0
-53 52 0
52 51 50 0
-52 -51 0
-52 -50 0
51 -9 -6 -14 0
-51 9 0
-51 6 0
-51 14 0
50 -64 -75 -6 0
-50 64 0
-50 75 0
-50 6 0
-49 -48 -47 0
49 48 0
49 47 0
-48 74 78 77 14 0
48 -74 0
48 -78 0
48 -77 0
48 -14 0
-47 62 46 0
47 -62 0
47 -46 0
11 46 0
-11 -46 0
45 44 39 0
-45 -44 0
-45 -39 0
44 -62 -43 0
-44 62 0
-44 43 0
-43 -42 -41 -40 -6 0
43 42 0
43 41 0
43 40 0
43 6 0
-42 64 9 8 0
42 -64 0
42 -9 0
42 -8 0
-41 75 13 0
41 -75 0
41 -13 0
-40 78 13 0
40 -78 0
40 -13 0
39 -11 -74 0
-39 11 0
-39 74 0
38 37 35 0
-38 -37 0
-38 -35 0
37 -36 -6 0
-37 36 0
-37 6 0
12 36 0
-12 -36 0
-35 -34 -33 -32 -62 0
35 34 0
35 33 0
35 32 0
35 62 0
-34 78 6 0
34 -78 0
34 -6 0
-33 7 6 0
33 -7 0
33 -6 0
-32 9 8 0
32 -9 0
32 -8 0
31 30 25 123 0
-31 -30 0
-31 -25 0
-31 -123 0
30 -29 -26 0
-30 29 0
-30 26 0
28 29 0
-28 -29 0
27 28 0
-27 -28 0
2 27 0
-2 -27 0
4 26 0
-4 -26 0
25 -28 -4 0
-25 28 0
-25 4 0
24 23 18 123 0
-24 -23 0
-24 -18 0
-24 -123 0
23 -22 -19 0
-23 22 0
-23 19 0
21 22 0
-21 -22 0
20 21 0
-20 -21 0
1 20 0
-1 -20 0
5 19 0
-5 -19 0
18 -21 -5 0
-18 21 0
-18 5 0
%
0